 0  6  4  7  2  9  3  5  8  1 10  6  4  7  2
 6  0  5  8  3  7  2  9  4 10  1  5  8  3  6
 4  5  0  6  9  1  7  3 10  2  8  4  6  9  1
 7  8  6  0  4 10  5  2  7  9  3  7  1  4 10
 2  3  9  4  0  6  8  1  5 10  7  2  3  6  8
 9  7  1 10  6  0  4  8  3  5  9  1  7  2  4
 3  2  7  5  8  4  0 10  6  1  5  9  2  8  3
 5  9  3  2  1  8 10  0  7  4  6  3  5  1  9
 8  4 10  7  5  3  6  7  0  9  2  8  4  5  6
 1 10  2  9 10  5  1  4  9  0  7  2 10  3  5
10  1  8  3  7  9  5  6  2  7  0  4  8  7  1
 6  5  4  7  2  1  9  3  8  2  4  0  6  9  3
 4  8  6  1  3  7  2  5  4 10  8  6  0  2  7
 7  3  9  4  6  2  8  1  5  3  7  9  2  0  8
 2  6  1 10  8  4  3  9  6  5  1  3  7  8  0